NAME : obs.obs
TIME : 2020-11-15 14:07:14
COMMENT : hello world
DIMENSION : 11
OBSTACLE_SECTION
0 71.1626 30.4435
1 43.1514 16.9355
2 42.8685 17.7419
3 21.6479 28.2258
4 18.2526 28.2258
5 45.9808 72.9839
6 44.0002 73.9919
7 43.1514 74.7984
8 70.5967 78.8306
9 70.3138 80.0403
10 68.3332 82.0565
EOF
